ACTORES = {Actor1, Actor2, Actor3, Actor4, Actor5} ;

Escenas = [| 1,1,0,0,10
           | 0,1,0,1,20
           | 0,0,1,1,15
           | 1,1,1,1,13
           | 1,0,1,0,17|]; 
           
Duracion = [2,1,3,4];

Disponibilidad =[|Actor1, 5
                 |Actor2, 8
                 |Actor3, 0
                 |Actor4, 10
                 |Actor5, 0|];

Evitar =[|Actor1, Actor2
         |Actor2, Actor3|];
         

% ----------
% 4 2 1 3 495 6
% ----------
% ==========
% Finished in 480msec.
